AES/1_4_4/ssaes_r1-20_c4_rw1_e4_f0_k1-20_aes_canon_box_aes_mc_bidirectional/ExperimentMinisat_r18_k3cnf_2011-11-18-115626/Result
WARNING: for repeatability, setting FPU to use double precision
============================[ Problem Statistics ]=============================
|                                                                             |
|  Number of variables:          2784                                         |
|  Number of clauses:           16570                                         |
|  Parse time:                   0.00 s                                       |
|  Eliminated clauses:           0.02 Mb                                      |
|  Simplification time:          0.02 s                                       |
|                                                                             |
=============================[ Search Statistics ]==============================
| Conflicts  |          ORIGINAL         |          LEARNT          | Progress |
|            |    Vars  Clauses Literals |    Limit  Clauses Lit/Cl |          |
================================================================================
|        100 |    2286    15142    47014 |     5552      100     31 |  3.736 % |
|        250 |    2286    15142    47014 |     6107      250     28 |  3.736 % |
|        475 |    2286    15142    47014 |     6718      475     29 |  3.736 % |
|        812 |    2286    15142    47014 |     7389      812     28 |  3.736 % |
|       1318 |    2286    15142    47014 |     8128     1318     27 |  3.736 % |
|       2077 |    2286    15142    47014 |     8941     2077     28 |  3.736 % |
|       3216 |    2286    15142    47014 |     9835     3216     27 |  3.736 % |
|       4924 |    2286    15142    47014 |    10819     4924     27 |  3.736 % |
|       7486 |    2286    15142    47014 |    11901     7486     27 |  3.736 % |
|      11330 |    2286    15142    47014 |    13091    11330     26 |  3.736 % |
|      17096 |    2286    15142    47014 |    14400    10479     23 |  3.736 % |
|      25745 |    2286    15142    47014 |    15840    11838     22 |  3.736 % |
===============================================================================
restarts              : 125
conflicts             : 34755          (5883 /sec)
decisions             : 40281          (0.00 % random) (6818 /sec)
propagations          : 36216168       (6129917 /sec)
conflict literals     : 868104         (65.12 % deleted)
Memory used           : 9.00 MB
CPU time              : 5.9081 s

SATISFIABLE
